p cnf 450 1177
e 273 274 275 276 277 278 279 280 281 282 283 284 285 286 287 288 289 290 291 292 293 294 295 296 297 298 299 300 301 302 303 304 305 306 426 427 428 429 430 431 432 433 434 435 436 437 438 439 440 441 442 0
a 450 0
e 239 240 241 242 243 244 245 246 247 248 249 250 251 252 253 254 255 256 257 258 259 260 261 262 263 264 265 266 267 268 269 270 271 272 409 410 411 412 413 414 415 416 417 418 419 420 421 422 423 424 425 0
a 449 0
e 205 206 207 208 209 210 211 212 213 214 215 216 217 218 219 220 221 222 223 224 225 226 227 228 229 230 231 232 233 234 235 236 237 238 392 393 394 395 396 397 398 399 400 401 402 403 404 405 406 407 408 0
a 448 0
e 171 172 173 174 175 176 177 178 179 180 181 182 183 184 185 186 187 188 189 190 191 192 193 194 195 196 197 198 199 200 201 202 203 204 375 376 377 378 379 380 381 382 383 384 385 386 387 388 389 390 391 0
a 447 0
e 137 138 139 140 141 142 143 144 145 146 147 148 149 150 151 152 153 154 155 156 157 158 159 160 161 162 163 164 165 166 167 168 169 170 358 359 360 361 362 363 364 365 366 367 368 369 370 371 372 373 374 0
a 446 0
e 103 104 105 106 107 108 109 110 111 112 113 114 115 116 117 118 119 120 121 122 123 124 125 126 127 128 129 130 131 132 133 134 135 136 341 342 343 344 345 346 347 348 349 350 351 352 353 354 355 356 357 0
a 445 0
e 69 70 71 72 73 74 75 76 77 78 79 80 81 82 83 84 85 86 87 88 89 90 91 92 93 94 95 96 97 98 99 100 101 102 324 325 326 327 328 329 330 331 332 333 334 335 336 337 338 339 340 0
a 444 0
e 35 36 37 38 39 40 41 42 43 44 45 46 47 48 49 50 51 52 53 54 55 56 57 58 59 60 61 62 63 64 65 66 67 68 307 308 309 310 311 312 313 314 315 316 317 318 319 320 321 322 323 0
a 443 0
e 1 2 3 4 5 6 7 8 9 10 11 12 13 14 15 16 17 18 19 20 21 22 23 24 25 26 27 28 29 30 31 32 33 34 0
273 -450 -239 0
-273 -450 239 0
274 -450 -240 0
-274 -450 240 0
275 -450 -241 0
-275 -450 241 0
276 -450 -242 0
-276 -450 242 0
277 -450 -243 0
-277 -450 243 0
278 -450 -244 0
-278 -450 244 0
279 -450 -245 0
-279 -450 245 0
280 -450 -246 0
-280 -450 246 0
281 -450 -247 0
-281 -450 247 0
282 -450 -248 0
-282 -450 248 0
283 -450 -249 0
-283 -450 249 0
284 -450 -250 0
-284 -450 250 0
285 -450 -251 0
-285 -450 251 0
286 -450 -252 0
-286 -450 252 0
287 -450 -253 0
-287 -450 253 0
288 -450 -254 0
-288 -450 254 0
289 -450 -255 0
-289 -450 255 0
426 -450 -256 0
-426 -450 256 0
427 -450 -257 0
-427 -450 257 0
428 -450 -258 0
-428 -450 258 0
429 -450 -259 0
-429 -450 259 0
430 -450 -260 0
-430 -450 260 0
431 -450 -261 0
-431 -450 261 0
432 -450 -262 0
-432 -450 262 0
433 -450 -263 0
-433 -450 263 0
434 -450 -264 0
-434 -450 264 0
435 -450 -265 0
-435 -450 265 0
436 -450 -266 0
-436 -450 266 0
437 -450 -267 0
-437 -450 267 0
438 -450 -268 0
-438 -450 268 0
439 -450 -269 0
-439 -450 269 0
440 -450 -270 0
-440 -450 270 0
441 -450 -271 0
-441 -450 271 0
442 -450 -272 0
-442 -450 272 0
426 450 -239 0
-426 450 239 0
427 450 -240 0
-427 450 240 0
428 450 -241 0
-428 450 241 0
429 450 -242 0
-429 450 242 0
430 450 -243 0
-430 450 243 0
431 450 -244 0
-431 450 244 0
432 450 -245 0
-432 450 245 0
433 450 -246 0
-433 450 246 0
434 450 -247 0
-434 450 247 0
435 450 -248 0
-435 450 248 0
436 450 -249 0
-436 450 249 0
437 450 -250 0
-437 450 250 0
438 450 -251 0
-438 450 251 0
439 450 -252 0
-439 450 252 0
440 450 -253 0
-440 450 253 0
441 450 -254 0
-441 450 254 0
442 450 -255 0
-442 450 255 0
290 450 -256 0
-290 450 256 0
291 450 -257 0
-291 450 257 0
292 450 -258 0
-292 450 258 0
293 450 -259 0
-293 450 259 0
294 450 -260 0
-294 450 260 0
295 450 -261 0
-295 450 261 0
296 450 -262 0
-296 450 262 0
297 450 -263 0
-297 450 263 0
298 450 -264 0
-298 450 264 0
299 450 -265 0
-299 450 265 0
300 450 -266 0
-300 450 266 0
301 450 -267 0
-301 450 267 0
302 450 -268 0
-302 450 268 0
303 450 -269 0
-303 450 269 0
304 450 -270 0
-304 450 270 0
305 450 -271 0
-305 450 271 0
306 450 -272 0
-306 450 272 0
239 -449 -205 0
-239 -449 205 0
240 -449 -206 0
-240 -449 206 0
241 -449 -207 0
-241 -449 207 0
242 -449 -208 0
-242 -449 208 0
243 -449 -209 0
-243 -449 209 0
244 -449 -210 0
-244 -449 210 0
245 -449 -211 0
-245 -449 211 0
246 -449 -212 0
-246 -449 212 0
247 -449 -213 0
-247 -449 213 0
248 -449 -214 0
-248 -449 214 0
249 -449 -215 0
-249 -449 215 0
250 -449 -216 0
-250 -449 216 0
251 -449 -217 0
-251 -449 217 0
252 -449 -218 0
-252 -449 218 0
253 -449 -219 0
-253 -449 219 0
254 -449 -220 0
-254 -449 220 0
255 -449 -221 0
-255 -449 221 0
409 -449 -222 0
-409 -449 222 0
410 -449 -223 0
-410 -449 223 0
411 -449 -224 0
-411 -449 224 0
412 -449 -225 0
-412 -449 225 0
413 -449 -226 0
-413 -449 226 0
414 -449 -227 0
-414 -449 227 0
415 -449 -228 0
-415 -449 228 0
416 -449 -229 0
-416 -449 229 0
417 -449 -230 0
-417 -449 230 0
418 -449 -231 0
-418 -449 231 0
419 -449 -232 0
-419 -449 232 0
420 -449 -233 0
-420 -449 233 0
421 -449 -234 0
-421 -449 234 0
422 -449 -235 0
-422 -449 235 0
423 -449 -236 0
-423 -449 236 0
424 -449 -237 0
-424 -449 237 0
425 -449 -238 0
-425 -449 238 0
409 449 -205 0
-409 449 205 0
410 449 -206 0
-410 449 206 0
411 449 -207 0
-411 449 207 0
412 449 -208 0
-412 449 208 0
413 449 -209 0
-413 449 209 0
414 449 -210 0
-414 449 210 0
415 449 -211 0
-415 449 211 0
416 449 -212 0
-416 449 212 0
417 449 -213 0
-417 449 213 0
418 449 -214 0
-418 449 214 0
419 449 -215 0
-419 449 215 0
420 449 -216 0
-420 449 216 0
421 449 -217 0
-421 449 217 0
422 449 -218 0
-422 449 218 0
423 449 -219 0
-423 449 219 0
424 449 -220 0
-424 449 220 0
425 449 -221 0
-425 449 221 0
256 449 -222 0
-256 449 222 0
257 449 -223 0
-257 449 223 0
258 449 -224 0
-258 449 224 0
259 449 -225 0
-259 449 225 0
260 449 -226 0
-260 449 226 0
261 449 -227 0
-261 449 227 0
262 449 -228 0
-262 449 228 0
263 449 -229 0
-263 449 229 0
264 449 -230 0
-264 449 230 0
265 449 -231 0
-265 449 231 0
266 449 -232 0
-266 449 232 0
267 449 -233 0
-267 449 233 0
268 449 -234 0
-268 449 234 0
269 449 -235 0
-269 449 235 0
270 449 -236 0
-270 449 236 0
271 449 -237 0
-271 449 237 0
272 449 -238 0
-272 449 238 0
205 -448 -171 0
-205 -448 171 0
206 -448 -172 0
-206 -448 172 0
207 -448 -173 0
-207 -448 173 0
208 -448 -174 0
-208 -448 174 0
209 -448 -175 0
-209 -448 175 0
210 -448 -176 0
-210 -448 176 0
211 -448 -177 0
-211 -448 177 0
212 -448 -178 0
-212 -448 178 0
213 -448 -179 0
-213 -448 179 0
214 -448 -180 0
-214 -448 180 0
215 -448 -181 0
-215 -448 181 0
216 -448 -182 0
-216 -448 182 0
217 -448 -183 0
-217 -448 183 0
218 -448 -184 0
-218 -448 184 0
219 -448 -185 0
-219 -448 185 0
220 -448 -186 0
-220 -448 186 0
221 -448 -187 0
-221 -448 187 0
392 -448 -188 0
-392 -448 188 0
393 -448 -189 0
-393 -448 189 0
394 -448 -190 0
-394 -448 190 0
395 -448 -191 0
-395 -448 191 0
396 -448 -192 0
-396 -448 192 0
397 -448 -193 0
-397 -448 193 0
398 -448 -194 0
-398 -448 194 0
399 -448 -195 0
-399 -448 195 0
400 -448 -196 0
-400 -448 196 0
401 -448 -197 0
-401 -448 197 0
402 -448 -198 0
-402 -448 198 0
403 -448 -199 0
-403 -448 199 0
404 -448 -200 0
-404 -448 200 0
405 -448 -201 0
-405 -448 201 0
406 -448 -202 0
-406 -448 202 0
407 -448 -203 0
-407 -448 203 0
408 -448 -204 0
-408 -448 204 0
392 448 -171 0
-392 448 171 0
393 448 -172 0
-393 448 172 0
394 448 -173 0
-394 448 173 0
395 448 -174 0
-395 448 174 0
396 448 -175 0
-396 448 175 0
397 448 -176 0
-397 448 176 0
398 448 -177 0
-398 448 177 0
399 448 -178 0
-399 448 178 0
400 448 -179 0
-400 448 179 0
401 448 -180 0
-401 448 180 0
402 448 -181 0
-402 448 181 0
403 448 -182 0
-403 448 182 0
404 448 -183 0
-404 448 183 0
405 448 -184 0
-405 448 184 0
406 448 -185 0
-406 448 185 0
407 448 -186 0
-407 448 186 0
408 448 -187 0
-408 448 187 0
222 448 -188 0
-222 448 188 0
223 448 -189 0
-223 448 189 0
224 448 -190 0
-224 448 190 0
225 448 -191 0
-225 448 191 0
226 448 -192 0
-226 448 192 0
227 448 -193 0
-227 448 193 0
228 448 -194 0
-228 448 194 0
229 448 -195 0
-229 448 195 0
230 448 -196 0
-230 448 196 0
231 448 -197 0
-231 448 197 0
232 448 -198 0
-232 448 198 0
233 448 -199 0
-233 448 199 0
234 448 -200 0
-234 448 200 0
235 448 -201 0
-235 448 201 0
236 448 -202 0
-236 448 202 0
237 448 -203 0
-237 448 203 0
238 448 -204 0
-238 448 204 0
171 -447 -137 0
-171 -447 137 0
172 -447 -138 0
-172 -447 138 0
173 -447 -139 0
-173 -447 139 0
174 -447 -140 0
-174 -447 140 0
175 -447 -141 0
-175 -447 141 0
176 -447 -142 0
-176 -447 142 0
177 -447 -143 0
-177 -447 143 0
178 -447 -144 0
-178 -447 144 0
179 -447 -145 0
-179 -447 145 0
180 -447 -146 0
-180 -447 146 0
181 -447 -147 0
-181 -447 147 0
182 -447 -148 0
-182 -447 148 0
183 -447 -149 0
-183 -447 149 0
184 -447 -150 0
-184 -447 150 0
185 -447 -151 0
-185 -447 151 0
186 -447 -152 0
-186 -447 152 0
187 -447 -153 0
-187 -447 153 0
375 -447 -154 0
-375 -447 154 0
376 -447 -155 0
-376 -447 155 0
377 -447 -156 0
-377 -447 156 0
378 -447 -157 0
-378 -447 157 0
379 -447 -158 0
-379 -447 158 0
380 -447 -159 0
-380 -447 159 0
381 -447 -160 0
-381 -447 160 0
382 -447 -161 0
-382 -447 161 0
383 -447 -162 0
-383 -447 162 0
384 -447 -163 0
-384 -447 163 0
385 -447 -164 0
-385 -447 164 0
386 -447 -165 0
-386 -447 165 0
387 -447 -166 0
-387 -447 166 0
388 -447 -167 0
-388 -447 167 0
389 -447 -168 0
-389 -447 168 0
390 -447 -169 0
-390 -447 169 0
391 -447 -170 0
-391 -447 170 0
375 447 -137 0
-375 447 137 0
376 447 -138 0
-376 447 138 0
377 447 -139 0
-377 447 139 0
378 447 -140 0
-378 447 140 0
379 447 -141 0
-379 447 141 0
380 447 -142 0
-380 447 142 0
381 447 -143 0
-381 447 143 0
382 447 -144 0
-382 447 144 0
383 447 -145 0
-383 447 145 0
384 447 -146 0
-384 447 146 0
385 447 -147 0
-385 447 147 0
386 447 -148 0
-386 447 148 0
387 447 -149 0
-387 447 149 0
388 447 -150 0
-388 447 150 0
389 447 -151 0
-389 447 151 0
390 447 -152 0
-390 447 152 0
391 447 -153 0
-391 447 153 0
188 447 -154 0
-188 447 154 0
189 447 -155 0
-189 447 155 0
190 447 -156 0
-190 447 156 0
191 447 -157 0
-191 447 157 0
192 447 -158 0
-192 447 158 0
193 447 -159 0
-193 447 159 0
194 447 -160 0
-194 447 160 0
195 447 -161 0
-195 447 161 0
196 447 -162 0
-196 447 162 0
197 447 -163 0
-197 447 163 0
198 447 -164 0
-198 447 164 0
199 447 -165 0
-199 447 165 0
200 447 -166 0
-200 447 166 0
201 447 -167 0
-201 447 167 0
202 447 -168 0
-202 447 168 0
203 447 -169 0
-203 447 169 0
204 447 -170 0
-204 447 170 0
137 -446 -103 0
-137 -446 103 0
138 -446 -104 0
-138 -446 104 0
139 -446 -105 0
-139 -446 105 0
140 -446 -106 0
-140 -446 106 0
141 -446 -107 0
-141 -446 107 0
142 -446 -108 0
-142 -446 108 0
143 -446 -109 0
-143 -446 109 0
144 -446 -110 0
-144 -446 110 0
145 -446 -111 0
-145 -446 111 0
146 -446 -112 0
-146 -446 112 0
147 -446 -113 0
-147 -446 113 0
148 -446 -114 0
-148 -446 114 0
149 -446 -115 0
-149 -446 115 0
150 -446 -116 0
-150 -446 116 0
151 -446 -117 0
-151 -446 117 0
152 -446 -118 0
-152 -446 118 0
153 -446 -119 0
-153 -446 119 0
358 -446 -120 0
-358 -446 120 0
359 -446 -121 0
-359 -446 121 0
360 -446 -122 0
-360 -446 122 0
361 -446 -123 0
-361 -446 123 0
362 -446 -124 0
-362 -446 124 0
363 -446 -125 0
-363 -446 125 0
364 -446 -126 0
-364 -446 126 0
365 -446 -127 0
-365 -446 127 0
366 -446 -128 0
-366 -446 128 0
367 -446 -129 0
-367 -446 129 0
368 -446 -130 0
-368 -446 130 0
369 -446 -131 0
-369 -446 131 0
370 -446 -132 0
-370 -446 132 0
371 -446 -133 0
-371 -446 133 0
372 -446 -134 0
-372 -446 134 0
373 -446 -135 0
-373 -446 135 0
374 -446 -136 0
-374 -446 136 0
358 446 -103 0
-358 446 103 0
359 446 -104 0
-359 446 104 0
360 446 -105 0
-360 446 105 0
361 446 -106 0
-361 446 106 0
362 446 -107 0
-362 446 107 0
363 446 -108 0
-363 446 108 0
364 446 -109 0
-364 446 109 0
365 446 -110 0
-365 446 110 0
366 446 -111 0
-366 446 111 0
367 446 -112 0
-367 446 112 0
368 446 -113 0
-368 446 113 0
369 446 -114 0
-369 446 114 0
370 446 -115 0
-370 446 115 0
371 446 -116 0
-371 446 116 0
372 446 -117 0
-372 446 117 0
373 446 -118 0
-373 446 118 0
374 446 -119 0
-374 446 119 0
154 446 -120 0
-154 446 120 0
155 446 -121 0
-155 446 121 0
156 446 -122 0
-156 446 122 0
157 446 -123 0
-157 446 123 0
158 446 -124 0
-158 446 124 0
159 446 -125 0
-159 446 125 0
160 446 -126 0
-160 446 126 0
161 446 -127 0
-161 446 127 0
162 446 -128 0
-162 446 128 0
163 446 -129 0
-163 446 129 0
164 446 -130 0
-164 446 130 0
165 446 -131 0
-165 446 131 0
166 446 -132 0
-166 446 132 0
167 446 -133 0
-167 446 133 0
168 446 -134 0
-168 446 134 0
169 446 -135 0
-169 446 135 0
170 446 -136 0
-170 446 136 0
103 -445 -69 0
-103 -445 69 0
104 -445 -70 0
-104 -445 70 0
105 -445 -71 0
-105 -445 71 0
106 -445 -72 0
-106 -445 72 0
107 -445 -73 0
-107 -445 73 0
108 -445 -74 0
-108 -445 74 0
109 -445 -75 0
-109 -445 75 0
110 -445 -76 0
-110 -445 76 0
111 -445 -77 0
-111 -445 77 0
112 -445 -78 0
-112 -445 78 0
113 -445 -79 0
-113 -445 79 0
114 -445 -80 0
-114 -445 80 0
115 -445 -81 0
-115 -445 81 0
116 -445 -82 0
-116 -445 82 0
117 -445 -83 0
-117 -445 83 0
118 -445 -84 0
-118 -445 84 0
119 -445 -85 0
-119 -445 85 0
341 -445 -86 0
-341 -445 86 0
342 -445 -87 0
-342 -445 87 0
343 -445 -88 0
-343 -445 88 0
344 -445 -89 0
-344 -445 89 0
345 -445 -90 0
-345 -445 90 0
346 -445 -91 0
-346 -445 91 0
347 -445 -92 0
-347 -445 92 0
348 -445 -93 0
-348 -445 93 0
349 -445 -94 0
-349 -445 94 0
350 -445 -95 0
-350 -445 95 0
351 -445 -96 0
-351 -445 96 0
352 -445 -97 0
-352 -445 97 0
353 -445 -98 0
-353 -445 98 0
354 -445 -99 0
-354 -445 99 0
355 -445 -100 0
-355 -445 100 0
356 -445 -101 0
-356 -445 101 0
357 -445 -102 0
-357 -445 102 0
341 445 -69 0
-341 445 69 0
342 445 -70 0
-342 445 70 0
343 445 -71 0
-343 445 71 0
344 445 -72 0
-344 445 72 0
345 445 -73 0
-345 445 73 0
346 445 -74 0
-346 445 74 0
347 445 -75 0
-347 445 75 0
348 445 -76 0
-348 445 76 0
349 445 -77 0
-349 445 77 0
350 445 -78 0
-350 445 78 0
351 445 -79 0
-351 445 79 0
352 445 -80 0
-352 445 80 0
353 445 -81 0
-353 445 81 0
354 445 -82 0
-354 445 82 0
355 445 -83 0
-355 445 83 0
356 445 -84 0
-356 445 84 0
357 445 -85 0
-357 445 85 0
120 445 -86 0
-120 445 86 0
121 445 -87 0
-121 445 87 0
122 445 -88 0
-122 445 88 0
123 445 -89 0
-123 445 89 0
124 445 -90 0
-124 445 90 0
125 445 -91 0
-125 445 91 0
126 445 -92 0
-126 445 92 0
127 445 -93 0
-127 445 93 0
128 445 -94 0
-128 445 94 0
129 445 -95 0
-129 445 95 0
130 445 -96 0
-130 445 96 0
131 445 -97 0
-131 445 97 0
132 445 -98 0
-132 445 98 0
133 445 -99 0
-133 445 99 0
134 445 -100 0
-134 445 100 0
135 445 -101 0
-135 445 101 0
136 445 -102 0
-136 445 102 0
69 -444 -35 0
-69 -444 35 0
70 -444 -36 0
-70 -444 36 0
71 -444 -37 0
-71 -444 37 0
72 -444 -38 0
-72 -444 38 0
73 -444 -39 0
-73 -444 39 0
74 -444 -40 0
-74 -444 40 0
75 -444 -41 0
-75 -444 41 0
76 -444 -42 0
-76 -444 42 0
77 -444 -43 0
-77 -444 43 0
78 -444 -44 0
-78 -444 44 0
79 -444 -45 0
-79 -444 45 0
80 -444 -46 0
-80 -444 46 0
81 -444 -47 0
-81 -444 47 0
82 -444 -48 0
-82 -444 48 0
83 -444 -49 0
-83 -444 49 0
84 -444 -50 0
-84 -444 50 0
85 -444 -51 0
-85 -444 51 0
324 -444 -52 0
-324 -444 52 0
325 -444 -53 0
-325 -444 53 0
326 -444 -54 0
-326 -444 54 0
327 -444 -55 0
-327 -444 55 0
328 -444 -56 0
-328 -444 56 0
329 -444 -57 0
-329 -444 57 0
330 -444 -58 0
-330 -444 58 0
331 -444 -59 0
-331 -444 59 0
332 -444 -60 0
-332 -444 60 0
333 -444 -61 0
-333 -444 61 0
334 -444 -62 0
-334 -444 62 0
335 -444 -63 0
-335 -444 63 0
336 -444 -64 0
-336 -444 64 0
337 -444 -65 0
-337 -444 65 0
338 -444 -66 0
-338 -444 66 0
339 -444 -67 0
-339 -444 67 0
340 -444 -68 0
-340 -444 68 0
324 444 -35 0
-324 444 35 0
325 444 -36 0
-325 444 36 0
326 444 -37 0
-326 444 37 0
327 444 -38 0
-327 444 38 0
328 444 -39 0
-328 444 39 0
329 444 -40 0
-329 444 40 0
330 444 -41 0
-330 444 41 0
331 444 -42 0
-331 444 42 0
332 444 -43 0
-332 444 43 0
333 444 -44 0
-333 444 44 0
334 444 -45 0
-334 444 45 0
335 444 -46 0
-335 444 46 0
336 444 -47 0
-336 444 47 0
337 444 -48 0
-337 444 48 0
338 444 -49 0
-338 444 49 0
339 444 -50 0
-339 444 50 0
340 444 -51 0
-340 444 51 0
86 444 -52 0
-86 444 52 0
87 444 -53 0
-87 444 53 0
88 444 -54 0
-88 444 54 0
89 444 -55 0
-89 444 55 0
90 444 -56 0
-90 444 56 0
91 444 -57 0
-91 444 57 0
92 444 -58 0
-92 444 58 0
93 444 -59 0
-93 444 59 0
94 444 -60 0
-94 444 60 0
95 444 -61 0
-95 444 61 0
96 444 -62 0
-96 444 62 0
97 444 -63 0
-97 444 63 0
98 444 -64 0
-98 444 64 0
99 444 -65 0
-99 444 65 0
100 444 -66 0
-100 444 66 0
101 444 -67 0
-101 444 67 0
102 444 -68 0
-102 444 68 0
35 -443 -1 0
-35 -443 1 0
36 -443 -2 0
-36 -443 2 0
37 -443 -3 0
-37 -443 3 0
38 -443 -4 0
-38 -443 4 0
39 -443 -5 0
-39 -443 5 0
40 -443 -6 0
-40 -443 6 0
41 -443 -7 0
-41 -443 7 0
42 -443 -8 0
-42 -443 8 0
43 -443 -9 0
-43 -443 9 0
44 -443 -10 0
-44 -443 10 0
45 -443 -11 0
-45 -443 11 0
46 -443 -12 0
-46 -443 12 0
47 -443 -13 0
-47 -443 13 0
48 -443 -14 0
-48 -443 14 0
49 -443 -15 0
-49 -443 15 0
50 -443 -16 0
-50 -443 16 0
51 -443 -17 0
-51 -443 17 0
307 -443 -18 0
-307 -443 18 0
308 -443 -19 0
-308 -443 19 0
309 -443 -20 0
-309 -443 20 0
310 -443 -21 0
-310 -443 21 0
311 -443 -22 0
-311 -443 22 0
312 -443 -23 0
-312 -443 23 0
313 -443 -24 0
-313 -443 24 0
314 -443 -25 0
-314 -443 25 0
315 -443 -26 0
-315 -443 26 0
316 -443 -27 0
-316 -443 27 0
317 -443 -28 0
-317 -443 28 0
318 -443 -29 0
-318 -443 29 0
319 -443 -30 0
-319 -443 30 0
320 -443 -31 0
-320 -443 31 0
321 -443 -32 0
-321 -443 32 0
322 -443 -33 0
-322 -443 33 0
323 -443 -34 0
-323 -443 34 0
307 443 -1 0
-307 443 1 0
308 443 -2 0
-308 443 2 0
309 443 -3 0
-309 443 3 0
310 443 -4 0
-310 443 4 0
311 443 -5 0
-311 443 5 0
312 443 -6 0
-312 443 6 0
313 443 -7 0
-313 443 7 0
314 443 -8 0
-314 443 8 0
315 443 -9 0
-315 443 9 0
316 443 -10 0
-316 443 10 0
317 443 -11 0
-317 443 11 0
318 443 -12 0
-318 443 12 0
319 443 -13 0
-319 443 13 0
320 443 -14 0
-320 443 14 0
321 443 -15 0
-321 443 15 0
322 443 -16 0
-322 443 16 0
323 443 -17 0
-323 443 17 0
52 443 -18 0
-52 443 18 0
53 443 -19 0
-53 443 19 0
54 443 -20 0
-54 443 20 0
55 443 -21 0
-55 443 21 0
56 443 -22 0
-56 443 22 0
57 443 -23 0
-57 443 23 0
58 443 -24 0
-58 443 24 0
59 443 -25 0
-59 443 25 0
60 443 -26 0
-60 443 26 0
61 443 -27 0
-61 443 27 0
62 443 -28 0
-62 443 28 0
63 443 -29 0
-63 443 29 0
64 443 -30 0
-64 443 30 0
65 443 -31 0
-65 443 31 0
66 443 -32 0
-66 443 32 0
67 443 -33 0
-67 443 33 0
68 443 -34 0
-68 443 34 0
-273 0
-282 0
-283 0
-284 0
-285 0
-286 0
-287 0
-288 0
-289 0
-9 17 0
8 -9 0
-8 9 -17 0
-8 16 0
7 -8 0
-7 8 -16 0
-7 15 0
6 -7 0
-6 7 -15 0
-6 14 0
5 -6 0
-5 6 -14 0
-5 13 0
4 -5 0
-4 5 -13 0
-4 12 0
3 -4 0
-3 4 -12 0
-3 11 0
2 -3 0
-2 3 -11 0
-2 10 0
2 -10 0
8 17 -34 0
-8 -17 -34 0
8 -17 34 0
-8 17 34 0
7 16 -33 0
-7 -16 -33 0
7 -16 33 0
-7 16 33 0
6 15 -32 0
-6 -15 -32 0
6 -15 32 0
-6 15 32 0
5 14 -31 0
-5 -14 -31 0
5 -14 31 0
-5 14 31 0
4 13 -30 0
-4 -13 -30 0
4 -13 30 0
-4 13 30 0
3 12 -29 0
-3 -12 -29 0
3 -12 29 0
-3 12 29 0
2 11 -28 0
-2 -11 -28 0
2 -11 28 0
-2 11 28 0
-10 -27 0
10 27 0
1 9 -18 0
-1 18 0
-9 18 0
-26 34 0
25 -26 0
-25 26 -34 0
-25 33 0
24 -25 0
-24 25 -33 0
-24 32 0
23 -24 0
-23 24 -32 0
-23 31 0
22 -23 0
-22 23 -31 0
-22 30 0
21 -22 0
-21 22 -30 0
-21 29 0
20 -21 0
-20 21 -29 0
-20 28 0
19 -20 0
-19 20 -28 0
-19 27 0
19 -27 0
290 0
